p cnf 430 1488
-191 71 0
-191 12 0
-191 23 0
-191 -153 0
-191 -182 0
191 -71 -12 -23 153 182 0
-192 -121 0
-192 -30 0
-192 158 0
-192 -74 0
-192 -185 0
192 121 30 -158 74 185 0
-193 -15 0
-193 -151 0
-193 187 0
-193 -72 0
-193 -171 0
193 15 151 -187 72 171 0
-194 47 0
-194 -32 0
-194 -18 0
-194 -186 0
-194 6 0
194 -47 32 18 186 -6 0
-195 -33 0
-195 59 0
-195 69 0
-195 9 0
-195 134 0
195 33 -59 -69 -9 -134 0
191 192 193 194 195 0
-196 -154 0
-196 -57 0
-196 -128 0
-196 113 0
-196 134 0
196 154 57 128 -113 -134 0
-197 57 0
-197 82 0
-197 -84 0
-197 -102 0
-197 15 0
197 -57 -82 84 102 -15 0
-198 142 0
-198 -146 0
-198 67 0
-198 -91 0
-198 -121 0
198 -142 146 -67 91 121 0
-199 71 0
-199 99 0
-199 -30 0
-199 94 0
-199 107 0
199 -71 -99 30 -94 -107 0
-200 80 0
-200 187 0
-200 147 0
-200 -130 0
-200 132 0
200 -80 -187 -147 130 -132 0
196 197 198 199 200 0
-201 54 0
-201 -126 0
-201 -98 0
-201 -40 0
-201 155 0
201 -54 126 98 40 -155 0
-202 186 0
-202 -60 0
-202 61 0
-202 140 0
-202 -185 0
202 -186 60 -61 -140 185 0
-203 -21 0
-203 131 0
-203 -62 0
-203 -110 0
-203 -100 0
203 21 -131 62 110 100 0
-204 145 0
-204 -119 0
-204 144 0
-204 -174 0
-204 86 0
204 -145 119 -144 174 -86 0
-205 85 0
-205 76 0
-205 -81 0
-205 -174 0
-205 -176 0
205 -85 -76 81 174 176 0
201 202 203 204 205 0
-206 86 0
-206 -90 0
-206 31 0
-206 -98 0
-206 -56 0
206 -86 90 -31 98 56 0
-207 90 0
-207 60 0
-207 39 0
-207 -100 0
-207 -136 0
207 -90 -60 -39 100 136 0
-208 -101 0
-208 -164 0
-208 106 0
-208 95 0
-208 134 0
208 101 164 -106 -95 -134 0
-209 124 0
-209 -133 0
-209 -145 0
-209 -189 0
-209 -76 0
209 -124 133 145 189 76 0
-210 -110 0
-210 -83 0
-210 59 0
-210 -179 0
-210 86 0
210 110 83 -59 179 -86 0
206 207 208 209 210 0
-211 47 0
-211 44 0
-211 -131 0
-211 -184 0
-211 119 0
211 -47 -44 131 184 -119 0
-212 106 0
-212 124 0
-212 62 0
-212 30 0
-212 151 0
212 -106 -124 -62 -30 -151 0
-213 107 0
-213 -135 0
-213 186 0
-213 118 0
-213 -164 0
213 -107 135 -186 -118 164 0
-214 -141 0
-214 -132 0
-214 31 0
-214 82 0
-214 -158 0
214 141 132 -31 -82 158 0
-215 51 0
-215 -149 0
-215 174 0
-215 -17 0
-215 -12 0
215 -51 149 -174 17 12 0
211 212 213 214 215 0
-216 -54 0
-216 114 0
-216 -127 0
-216 86 0
-216 49 0
216 54 -114 127 -86 -49 0
-217 189 0
-217 -19 0
-217 -91 0
-217 12 0
-217 146 0
217 -189 19 91 -12 -146 0
-218 -18 0
-218 -14 0
-218 157 0
-218 -63 0
-218 -80 0
218 18 14 -157 63 80 0
-219 -166 0
-219 145 0
-219 174 0
-219 110 0
-219 -187 0
219 166 -145 -174 -110 187 0
-220 -128 0
-220 -127 0
-220 22 0
-220 157 0
-220 148 0
220 128 127 -22 -157 -148 0
216 217 218 219 220 0
-221 147 0
-221 106 0
-221 126 0
-221 182 0
-221 -125 0
221 -147 -106 -126 -182 125 0
-222 108 0
-222 54 0
-222 133 0
-222 22 0
-222 -159 0
222 -108 -54 -133 -22 159 0
-223 -176 0
-223 145 0
-223 149 0
-223 -142 0
-223 73 0
223 176 -145 -149 142 -73 0
-224 -84 0
-224 -189 0
-224 -70 0
-224 76 0
-224 -43 0
224 84 189 70 -76 43 0
-225 -93 0
-225 -88 0
-225 104 0
-225 66 0
-225 77 0
225 93 88 -104 -66 -77 0
221 222 223 224 225 0
-226 -8 0
-226 -11 0
-226 140 0
-226 24 0
-226 -77 0
226 8 11 -140 -24 77 0
-227 -57 0
-227 -78 0
-227 9 0
-227 -45 0
-227 71 0
227 57 78 -9 45 -71 0
-228 -169 0
-228 176 0
-228 52 0
-228 14 0
-228 170 0
228 169 -176 -52 -14 -170 0
-229 116 0
-229 71 0
-229 -76 0
-229 2 0
-229 -109 0
229 -116 -71 76 -2 109 0
-230 105 0
-230 -103 0
-230 133 0
-230 93 0
-230 187 0
230 -105 103 -133 -93 -187 0
226 227 228 229 230 0
-231 116 0
-231 -36 0
-231 114 0
-231 77 0
-231 -121 0
231 -116 36 -114 -77 121 0
-232 104 0
-232 -66 0
-232 -148 0
-232 -170 0
-232 -58 0
232 -104 66 148 170 58 0
-233 141 0
-233 -54 0
-233 -31 0
-233 59 0
-233 -129 0
233 -141 54 31 -59 129 0
-234 -78 0
-234 -69 0
-234 121 0
-234 178 0
-234 -62 0
234 78 69 -121 -178 62 0
-235 -184 0
-235 -163 0
-235 -161 0
-235 -72 0
-235 -68 0
235 184 163 161 72 68 0
231 232 233 234 235 0
-236 152 0
-236 84 0
-236 146 0
-236 -115 0
-236 -33 0
236 -152 -84 -146 115 33 0
-237 97 0
-237 -72 0
-237 -179 0
-237 -19 0
-237 -169 0
237 -97 72 179 19 169 0
-238 132 0
-238 98 0
-238 143 0
-238 -66 0
-238 38 0
238 -132 -98 -143 66 -38 0
-239 -77 0
-239 119 0
-239 56 0
-239 -108 0
-239 -61 0
239 77 -119 -56 108 61 0
-240 -15 0
-240 -112 0
-240 59 0
-240 115 0
-240 -116 0
240 15 112 -59 -115 116 0
236 237 238 239 240 0
-241 -142 0
-241 -172 0
-241 125 0
-241 -49 0
-241 -31 0
241 142 172 -125 49 31 0
-242 -68 0
-242 -168 0
-242 187 0
-242 -144 0
-242 105 0
242 68 168 -187 144 -105 0
-243 93 0
-243 -147 0
-243 177 0
-243 -12 0
-243 -78 0
243 -93 147 -177 12 78 0
-244 -13 0
-244 67 0
-244 10 0
-244 152 0
-244 -170 0
244 13 -67 -10 -152 170 0
-245 57 0
-245 22 0
-245 180 0
-245 52 0
-245 145 0
245 -57 -22 -180 -52 -145 0
241 242 243 244 245 0
-246 28 0
-246 -68 0
-246 -144 0
-246 50 0
-246 -87 0
246 -28 68 144 -50 87 0
-247 -175 0
-247 -113 0
-247 38 0
-247 -41 0
-247 -19 0
247 175 113 -38 41 19 0
-248 21 0
-248 58 0
-248 8 0
-248 33 0
-248 -138 0
248 -21 -58 -8 -33 138 0
-249 74 0
-249 -51 0
-249 -91 0
-249 -167 0
-249 8 0
249 -74 51 91 167 -8 0
-250 124 0
-250 82 0
-250 -183 0
-250 -168 0
-250 -94 0
250 -124 -82 183 168 94 0
246 247 248 249 250 0
-251 -186 0
-251 155 0
-251 -65 0
-251 -77 0
-251 179 0
251 186 -155 65 77 -179 0
-252 91 0
-252 -174 0
-252 75 0
-252 100 0
-252 -9 0
252 -91 174 -75 -100 9 0
-253 -26 0
-253 136 0
-253 -74 0
-253 107 0
-253 -2 0
253 26 -136 74 -107 2 0
-254 165 0
-254 45 0
-254 -52 0
-254 -134 0
-254 37 0
254 -165 -45 52 134 -37 0
-255 -164 0
-255 -152 0
-255 107 0
-255 166 0
-255 -111 0
255 164 152 -107 -166 111 0
251 252 253 254 255 0
-256 -124 0
-256 -151 0
-256 100 0
-256 160 0
-256 36 0
256 124 151 -100 -160 -36 0
-257 -14 0
-257 33 0
-257 -163 0
-257 111 0
-257 64 0
257 14 -33 163 -111 -64 0
-258 -37 0
-258 149 0
-258 -187 0
-258 71 0
-258 178 0
258 37 -149 187 -71 -178 0
-259 -141 0
-259 125 0
-259 -177 0
-259 63 0
-259 -53 0
259 141 -125 177 -63 53 0
-260 -150 0
-260 -89 0
-260 -25 0
-260 -26 0
-260 84 0
260 150 89 25 26 -84 0
256 257 258 259 260 0
-261 -115 0
-261 97 0
-261 83 0
-261 -23 0
-261 -35 0
261 115 -97 -83 23 35 0
-262 -138 0
-262 -118 0
-262 181 0
-262 168 0
-262 96 0
262 138 118 -181 -168 -96 0
-263 110 0
-263 -135 0
-263 -121 0
-263 120 0
-263 -168 0
263 -110 135 121 -120 168 0
-264 43 0
-264 29 0
-264 -153 0
-264 174 0
-264 64 0
264 -43 -29 153 -174 -64 0
-265 -26 0
-265 157 0
-265 -145 0
-265 24 0
-265 -117 0
265 26 -157 145 -24 117 0
261 262 263 264 265 0
-266 166 0
-266 47 0
-266 -67 0
-266 -19 0
-266 174 0
266 -166 -47 67 19 -174 0
-267 117 0
-267 160 0
-267 -114 0
-267 -156 0
-267 34 0
267 -117 -160 114 156 -34 0
-268 181 0
-268 -52 0
-268 -149 0
-268 -113 0
-268 -8 0
268 -181 52 149 113 8 0
-269 3 0
-269 74 0
-269 -120 0
-269 -43 0
-269 123 0
269 -3 -74 120 43 -123 0
-270 154 0
-270 -146 0
-270 180 0
-270 35 0
-270 10 0
270 -154 146 -180 -35 -10 0
266 267 268 269 270 0
-271 -17 0
-271 119 0
-271 128 0
-271 -62 0
-271 32 0
271 17 -119 -128 62 -32 0
-272 -172 0
-272 -68 0
-272 -113 0
-272 -11 0
-272 52 0
272 172 68 113 11 -52 0
-273 -114 0
-273 -81 0
-273 38 0
-273 190 0
-273 19 0
273 114 81 -38 -190 -19 0
-274 -152 0
-274 80 0
-274 98 0
-274 -146 0
-274 95 0
274 152 -80 -98 146 -95 0
-275 -103 0
-275 13 0
-275 -42 0
-275 161 0
-275 181 0
275 103 -13 42 -161 -181 0
271 272 273 274 275 0
-276 -124 0
-276 -71 0
-276 -96 0
-276 -135 0
-276 69 0
276 124 71 96 135 -69 0
-277 142 0
-277 52 0
-277 -83 0
-277 -176 0
-277 -151 0
277 -142 -52 83 176 151 0
-278 -34 0
-278 -162 0
-278 17 0
-278 15 0
-278 136 0
278 34 162 -17 -15 -136 0
-279 -108 0
-279 -184 0
-279 68 0
-279 -20 0
-279 187 0
279 108 184 -68 20 -187 0
-280 -49 0
-280 95 0
-280 -41 0
-280 5 0
-280 27 0
280 49 -95 41 -5 -27 0
276 277 278 279 280 0
-281 71 0
-281 -116 0
-281 -42 0
-281 95 0
-281 60 0
281 -71 116 42 -95 -60 0
-282 -104 0
-282 -113 0
-282 -79 0
-282 51 0
-282 -32 0
282 104 113 79 -51 32 0
-283 17 0
-283 81 0
-283 106 0
-283 -166 0
-283 82 0
283 -17 -81 -106 166 -82 0
-284 187 0
-284 -76 0
-284 80 0
-284 82 0
-284 -5 0
284 -187 76 -80 -82 5 0
-285 158 0
-285 -110 0
-285 83 0
-285 37 0
-285 -139 0
285 -158 110 -83 -37 139 0
281 282 283 284 285 0
-286 41 0
-286 -151 0
-286 143 0
-286 -58 0
-286 -153 0
286 -41 151 -143 58 153 0
-287 162 0
-287 143 0
-287 -27 0
-287 28 0
-287 -142 0
287 -162 -143 27 -28 142 0
-288 87 0
-288 117 0
-288 156 0
-288 -177 0
-288 101 0
288 -87 -117 -156 177 -101 0
-289 21 0
-289 -16 0
-289 19 0
-289 -32 0
-289 -100 0
289 -21 16 -19 32 100 0
-290 -27 0
-290 187 0
-290 -186 0
-290 -9 0
-290 -165 0
290 27 -187 186 9 165 0
286 287 288 289 290 0
-291 -66 0
-291 -9 0
-291 -107 0
-291 23 0
-291 187 0
291 66 9 107 -23 -187 0
-292 14 0
-292 -181 0
-292 -118 0
-292 186 0
-292 -80 0
292 -14 181 118 -186 80 0
-293 -113 0
-293 178 0
-293 75 0
-293 -174 0
-293 -56 0
293 113 -178 -75 174 56 0
-294 -21 0
-294 -86 0
-294 -179 0
-294 183 0
-294 -29 0
294 21 86 179 -183 29 0
-295 128 0
-295 -116 0
-295 127 0
-295 28 0
-295 85 0
295 -128 116 -127 -28 -85 0
291 292 293 294 295 0
-296 -69 0
-296 70 0
-296 131 0
-296 -127 0
-296 -182 0
296 69 -70 -131 127 182 0
-297 -103 0
-297 -98 0
-297 116 0
-297 78 0
-297 49 0
297 103 98 -116 -78 -49 0
-298 -2 0
-298 -156 0
-298 189 0
-298 -39 0
-298 -48 0
298 2 156 -189 39 48 0
-299 -47 0
-299 147 0
-299 1 0
-299 143 0
-299 -72 0
299 47 -147 -1 -143 72 0
-300 -164 0
-300 -65 0
-300 117 0
-300 -53 0
-300 31 0
300 164 65 -117 53 -31 0
296 297 298 299 300 0
-301 147 0
-301 111 0
-301 -70 0
-301 -145 0
-301 -102 0
301 -147 -111 70 145 102 0
-302 -41 0
-302 141 0
-302 180 0
-302 164 0
-302 24 0
302 41 -141 -180 -164 -24 0
-303 161 0
-303 -119 0
-303 98 0
-303 84 0
-303 89 0
303 -161 119 -98 -84 -89 0
-304 -58 0
-304 111 0
-304 174 0
-304 149 0
-304 74 0
304 58 -111 -174 -149 -74 0
-305 18 0
-305 88 0
-305 -8 0
-305 -63 0
-305 155 0
305 -18 -88 8 63 -155 0
301 302 303 304 305 0
-306 -190 0
-306 44 0
-306 -112 0
-306 -4 0
-306 97 0
306 190 -44 112 4 -97 0
-307 36 0
-307 -98 0
-307 47 0
-307 -4 0
-307 -44 0
307 -36 98 -47 4 44 0
-308 -56 0
-308 84 0
-308 129 0
-308 -172 0
-308 60 0
308 56 -84 -129 172 -60 0
-309 -6 0
-309 -60 0
-309 -84 0
-309 -173 0
-309 -189 0
309 6 60 84 173 189 0
-310 -54 0
-310 5 0
-310 82 0
-310 91 0
-310 182 0
310 54 -5 -82 -91 -182 0
306 307 308 309 310 0
-311 -69 0
-311 178 0
-311 -126 0
-311 46 0
-311 114 0
311 69 -178 126 -46 -114 0
-312 -85 0
-312 63 0
-312 179 0
-312 28 0
-312 -168 0
312 85 -63 -179 -28 168 0
-313 144 0
-313 82 0
-313 65 0
-313 51 0
-313 -149 0
313 -144 -82 -65 -51 149 0
-314 -76 0
-314 -13 0
-314 109 0
-314 -168 0
-314 -73 0
314 76 13 -109 168 73 0
-315 -142 0
-315 -190 0
-315 32 0
-315 49 0
-315 -73 0
315 142 190 -32 -49 73 0
311 312 313 314 315 0
-316 -40 0
-316 58 0
-316 -169 0
-316 -164 0
-316 35 0
316 40 -58 169 164 -35 0
-317 6 0
-317 -84 0
-317 23 0
-317 54 0
-317 -22 0
317 -6 84 -23 -54 22 0
-318 115 0
-318 145 0
-318 -81 0
-318 -154 0
-318 -88 0
318 -115 -145 81 154 88 0
-319 -172 0
-319 -92 0
-319 178 0
-319 -108 0
-319 102 0
319 172 92 -178 108 -102 0
-320 14 0
-320 -118 0
-320 75 0
-320 -139 0
-320 -189 0
320 -14 118 -75 139 189 0
316 317 318 319 320 0
-321 -151 0
-321 139 0
-321 -93 0
-321 133 0
-321 -7 0
321 151 -139 93 -133 7 0
-322 -10 0
-322 16 0
-322 -46 0
-322 103 0
-322 164 0
322 10 -16 46 -103 -164 0
-323 -12 0
-323 -146 0
-323 159 0
-323 -155 0
-323 119 0
323 12 146 -159 155 -119 0
-324 65 0
-324 -113 0
-324 120 0
-324 150 0
-324 107 0
324 -65 113 -120 -150 -107 0
-325 95 0
-325 -67 0
-325 -130 0
-325 -7 0
-325 56 0
325 -95 67 130 7 -56 0
321 322 323 324 325 0
-326 80 0
-326 -3 0
-326 -100 0
-326 -116 0
-326 98 0
326 -80 3 100 116 -98 0
-327 189 0
-327 -178 0
-327 57 0
-327 188 0
-327 79 0
327 -189 178 -57 -188 -79 0
-328 53 0
-328 75 0
-328 -92 0
-328 -126 0
-328 85 0
328 -53 -75 92 126 -85 0
-329 -165 0
-329 37 0
-329 18 0
-329 -59 0
-329 112 0
329 165 -37 -18 59 -112 0
-330 50 0
-330 27 0
-330 82 0
-330 -91 0
-330 -42 0
330 -50 -27 -82 91 42 0
326 327 328 329 330 0
-331 41 0
-331 144 0
-331 169 0
-331 42 0
-331 184 0
331 -41 -144 -169 -42 -184 0
-332 40 0
-332 -127 0
-332 -168 0
-332 9 0
-332 -134 0
332 -40 127 168 -9 134 0
-333 -143 0
-333 144 0
-333 186 0
-333 -162 0
-333 40 0
333 143 -144 -186 162 -40 0
-334 -34 0
-334 135 0
-334 83 0
-334 183 0
-334 -103 0
334 34 -135 -83 -183 103 0
-335 173 0
-335 -152 0
-335 82 0
-335 -80 0
-335 149 0
335 -173 152 -82 80 -149 0
331 332 333 334 335 0
-336 -155 0
-336 153 0
-336 -51 0
-336 190 0
-336 -66 0
336 155 -153 51 -190 66 0
-337 -64 0
-337 68 0
-337 182 0
-337 156 0
-337 149 0
337 64 -68 -182 -156 -149 0
-338 175 0
-338 -104 0
-338 169 0
-338 58 0
-338 50 0
338 -175 104 -169 -58 -50 0
-339 92 0
-339 -55 0
-339 164 0
-339 85 0
-339 102 0
339 -92 55 -164 -85 -102 0
-340 181 0
-340 -15 0
-340 185 0
-340 -120 0
-340 155 0
340 -181 15 -185 120 -155 0
336 337 338 339 340 0
-341 -165 0
-341 156 0
-341 65 0
-341 61 0
-341 -155 0
341 165 -156 -65 -61 155 0
-342 -152 0
-342 -83 0
-342 -102 0
-342 166 0
-342 -30 0
342 152 83 102 -166 30 0
-343 96 0
-343 -36 0
-343 15 0
-343 -94 0
-343 -113 0
343 -96 36 -15 94 113 0
-344 -92 0
-344 167 0
-344 149 0
-344 104 0
-344 76 0
344 92 -167 -149 -104 -76 0
-345 99 0
-345 -47 0
-345 80 0
-345 180 0
-345 -133 0
345 -99 47 -80 -180 133 0
341 342 343 344 345 0
-346 81 0
-346 -185 0
-346 89 0
-346 -163 0
-346 97 0
346 -81 185 -89 163 -97 0
-347 -119 0
-347 73 0
-347 -19 0
-347 78 0
-347 183 0
347 119 -73 19 -78 -183 0
-348 -22 0
-348 -136 0
-348 114 0
-348 -126 0
-348 108 0
348 22 136 -114 126 -108 0
-349 173 0
-349 -127 0
-349 -189 0
-349 138 0
-349 93 0
349 -173 127 189 -138 -93 0
-350 -24 0
-350 -158 0
-350 -22 0
-350 45 0
-350 -32 0
350 24 158 22 -45 32 0
346 347 348 349 350 0
-351 4 0
-351 96 0
-351 82 0
-351 127 0
-351 -55 0
351 -4 -96 -82 -127 55 0
-352 1 0
-352 -112 0
-352 -48 0
-352 183 0
-352 -10 0
352 -1 112 48 -183 10 0
-353 36 0
-353 -128 0
-353 -51 0
-353 72 0
-353 77 0
353 -36 128 51 -72 -77 0
-354 -120 0
-354 -150 0
-354 -132 0
-354 26 0
-354 -20 0
354 120 150 132 -26 20 0
-355 52 0
-355 77 0
-355 162 0
-355 133 0
-355 91 0
355 -52 -77 -162 -133 -91 0
351 352 353 354 355 0
-356 111 0
-356 30 0
-356 -70 0
-356 -23 0
-356 11 0
356 -111 -30 70 23 -11 0
-357 -79 0
-357 102 0
-357 -130 0
-357 -38 0
-357 -110 0
357 79 -102 130 38 110 0
-358 112 0
-358 9 0
-358 -114 0
-358 91 0
-358 15 0
358 -112 -9 114 -91 -15 0
-359 -131 0
-359 127 0
-359 -139 0
-359 95 0
-359 -117 0
359 131 -127 139 -95 117 0
-360 -129 0
-360 157 0
-360 39 0
-360 137 0
-360 -77 0
360 129 -157 -39 -137 77 0
356 357 358 359 360 0
-361 -110 0
-361 153 0
-361 -180 0
-361 31 0
-361 -151 0
361 110 -153 180 -31 151 0
-362 -39 0
-362 -190 0
-362 131 0
-362 43 0
-362 -188 0
362 39 190 -131 -43 188 0
-363 -7 0
-363 71 0
-363 158 0
-363 -97 0
-363 54 0
363 7 -71 -158 97 -54 0
-364 -71 0
-364 161 0
-364 10 0
-364 86 0
-364 -142 0
364 71 -161 -10 -86 142 0
-365 160 0
-365 21 0
-365 -141 0
-365 167 0
-365 -88 0
365 -160 -21 141 -167 88 0
361 362 363 364 365 0
-366 107 0
-366 -44 0
-366 181 0
-366 -86 0
-366 174 0
366 -107 44 -181 86 -174 0
-367 65 0
-367 160 0
-367 -173 0
-367 -147 0
-367 159 0
367 -65 -160 173 147 -159 0
-368 -33 0
-368 171 0
-368 159 0
-368 -43 0
-368 106 0
368 33 -171 -159 43 -106 0
-369 -99 0
-369 -143 0
-369 149 0
-369 -106 0
-369 -14 0
369 99 143 -149 106 14 0
-370 -8 0
-370 145 0
-370 -2 0
-370 -43 0
-370 -65 0
370 8 -145 2 43 65 0
366 367 368 369 370 0
-371 116 0
-371 184 0
-371 6 0
-371 -99 0
-371 -153 0
371 -116 -184 -6 99 153 0
-372 75 0
-372 -61 0
-372 58 0
-372 -119 0
-372 186 0
372 -75 61 -58 119 -186 0
-373 -4 0
-373 136 0
-373 -47 0
-373 100 0
-373 88 0
373 4 -136 47 -100 -88 0
-374 12 0
-374 -9 0
-374 60 0
-374 95 0
-374 157 0
374 -12 9 -60 -95 -157 0
-375 179 0
-375 171 0
-375 132 0
-375 -20 0
-375 21 0
375 -179 -171 -132 20 -21 0
371 372 373 374 375 0
-376 -143 0
-376 -190 0
-376 -139 0
-376 -173 0
-376 -24 0
376 143 190 139 173 24 0
-377 -112 0
-377 56 0
-377 96 0
-377 26 0
-377 -151 0
377 112 -56 -96 -26 151 0
-378 14 0
-378 -23 0
-378 92 0
-378 183 0
-378 11 0
378 -14 23 -92 -183 -11 0
-379 -18 0
-379 58 0
-379 151 0
-379 105 0
-379 87 0
379 18 -58 -151 -105 -87 0
-380 113 0
-380 166 0
-380 -169 0
-380 -69 0
-380 64 0
380 -113 -166 169 69 -64 0
376 377 378 379 380 0
-381 125 0
-381 84 0
-381 149 0
-381 -57 0
-381 -172 0
381 -125 -84 -149 57 172 0
-382 130 0
-382 -14 0
-382 26 0
-382 -102 0
-382 152 0
382 -130 14 -26 102 -152 0
-383 123 0
-383 9 0
-383 -67 0
-383 -60 0
-383 -48 0
383 -123 -9 67 60 48 0
-384 -2 0
-384 -42 0
-384 -161 0
-384 13 0
-384 103 0
384 2 42 161 -13 -103 0
-385 -79 0
-385 39 0
-385 107 0
-385 123 0
-385 -102 0
385 79 -39 -107 -123 102 0
381 382 383 384 385 0
-386 27 0
-386 91 0
-386 26 0
-386 64 0
-386 -140 0
386 -27 -91 -26 -64 140 0
-387 19 0
-387 -132 0
-387 88 0
-387 -53 0
-387 45 0
387 -19 132 -88 53 -45 0
-388 -31 0
-388 168 0
-388 -10 0
-388 119 0
-388 21 0
388 31 -168 10 -119 -21 0
-389 -148 0
-389 134 0
-389 111 0
-389 68 0
-389 -67 0
389 148 -134 -111 -68 67 0
-390 83 0
-390 96 0
-390 100 0
-390 138 0
-390 -36 0
390 -83 -96 -100 -138 36 0
386 387 388 389 390 0
-391 -8 0
-391 -125 0
-391 21 0
-391 7 0
-391 -62 0
391 8 125 -21 -7 62 0
-392 -131 0
-392 -94 0
-392 49 0
-392 152 0
-392 181 0
392 131 94 -49 -152 -181 0
-393 49 0
-393 125 0
-393 -133 0
-393 12 0
-393 121 0
393 -49 -125 133 -12 -121 0
-394 9 0
-394 63 0
-394 93 0
-394 -25 0
-394 98 0
394 -9 -63 -93 25 -98 0
-395 -140 0
-395 22 0
-395 156 0
-395 -47 0
-395 -69 0
395 140 -22 -156 47 69 0
391 392 393 394 395 0
-396 -151 0
-396 -167 0
-396 -61 0
-396 130 0
-396 -161 0
396 151 167 61 -130 161 0
-397 -18 0
-397 94 0
-397 -108 0
-397 159 0
-397 -160 0
397 18 -94 108 -159 160 0
-398 -79 0
-398 81 0
-398 -94 0
-398 111 0
-398 -55 0
398 79 -81 94 -111 55 0
-399 8 0
-399 153 0
-399 -184 0
-399 -43 0
-399 -63 0
399 -8 -153 184 43 63 0
-400 -131 0
-400 125 0
-400 180 0
-400 -8 0
-400 -70 0
400 131 -125 -180 8 70 0
396 397 398 399 400 0
-401 9 0
-401 -32 0
-401 108 0
-401 168 0
-401 -99 0
401 -9 32 -108 -168 99 0
-402 -179 0
-402 55 0
-402 164 0
-402 42 0
-402 91 0
402 179 -55 -164 -42 -91 0
-403 -125 0
-403 35 0
-403 -117 0
-403 -165 0
-403 102 0
403 125 -35 117 165 -102 0
-404 155 0
-404 177 0
-404 -27 0
-404 88 0
-404 158 0
404 -155 -177 27 -88 -158 0
-405 -13 0
-405 19 0
-405 -98 0
-405 95 0
-405 59 0
405 13 -19 98 -95 -59 0
401 402 403 404 405 0
-406 -52 0
-406 -126 0
-406 24 0
-406 -97 0
-406 -35 0
406 52 126 -24 97 35 0
-407 -121 0
-407 164 0
-407 90 0
-407 -42 0
-407 176 0
407 121 -164 -90 42 -176 0
-408 99 0
-408 180 0
-408 -26 0
-408 -2 0
-408 -97 0
408 -99 -180 26 2 97 0
-409 -190 0
-409 -23 0
-409 -149 0
-409 -113 0
-409 -59 0
409 190 23 149 113 59 0
-410 98 0
-410 -13 0
-410 -167 0
-410 -105 0
-410 -148 0
410 -98 13 167 105 148 0
406 407 408 409 410 0
-411 -138 0
-411 144 0
-411 -57 0
-411 -103 0
-411 147 0
411 138 -144 57 103 -147 0
-412 -163 0
-412 -119 0
-412 42 0
-412 38 0
-412 -143 0
412 163 119 -42 -38 143 0
-413 163 0
-413 -125 0
-413 70 0
-413 -171 0
-413 -180 0
413 -163 125 -70 171 180 0
-414 92 0
-414 -82 0
-414 -61 0
-414 -140 0
-414 22 0
414 -92 82 61 140 -22 0
-415 -28 0
-415 135 0
-415 8 0
-415 104 0
-415 58 0
415 28 -135 -8 -104 -58 0
411 412 413 414 415 0
-416 -134 0
-416 132 0
-416 1 0
-416 67 0
-416 -91 0
416 134 -132 -1 -67 91 0
-417 84 0
-417 -111 0
-417 -121 0
-417 27 0
-417 -113 0
417 -84 111 121 -27 113 0
-418 51 0
-418 148 0
-418 -87 0
-418 17 0
-418 -171 0
418 -51 -148 87 -17 171 0
-419 132 0
-419 -185 0
-419 32 0
-419 106 0
-419 -115 0
419 -132 185 -32 -106 115 0
-420 -135 0
-420 37 0
-420 93 0
-420 -129 0
-420 -7 0
420 135 -37 -93 129 7 0
416 417 418 419 420 0
-421 174 0
-421 -162 0
-421 -90 0
-421 -150 0
-421 42 0
421 -174 162 90 150 -42 0
-422 90 0
-422 -29 0
-422 -14 0
-422 100 0
-422 94 0
422 -90 29 14 -100 -94 0
-423 9 0
-423 -93 0
-423 -143 0
-423 166 0
-423 -176 0
423 -9 93 143 -166 176 0
-424 -60 0
-424 -7 0
-424 164 0
-424 135 0
-424 -85 0
424 60 7 -164 -135 85 0
-425 -8 0
-425 97 0
-425 172 0
-425 -148 0
-425 -163 0
425 8 -97 -172 148 163 0
421 422 423 424 425 0
-426 -134 0
-426 164 0
-426 -27 0
-426 66 0
-426 -113 0
426 134 -164 27 -66 113 0
-427 -101 0
-427 89 0
-427 1 0
-427 54 0
-427 176 0
427 101 -89 -1 -54 -176 0
-428 -155 0
-428 -64 0
-428 161 0
-428 -170 0
-428 128 0
428 155 64 -161 170 -128 0
-429 -31 0
-429 182 0
-429 9 0
-429 45 0
-429 98 0
429 31 -182 -9 -45 -98 0
-430 119 0
-430 -23 0
-430 -109 0
-430 187 0
-430 48 0
430 -119 23 109 -187 -48 0
426 427 428 429 430 0
